data/solutions/recovery/wellformed/moderate/flexible/wellformed_moderate_instance11/31.sol
Elapsed time: 0.53
Upper bound: 11159.0
Planning weighted value: 74539.0
C[0]=11159.0
C[1]=11159.0
C[2]=11154.0
y[0]=1
y[1]=1
y[2]=1
y[3]=0
y[4]=1
y[5]=1
y[6]=2
y[7]=0
y[8]=2
y[9]=1
y[10]=1
y[11]=1
y[12]=1
y[13]=2
y[14]=2
y[15]=0
y[16]=2
y[17]=0
y[18]=0
y[19]=0
y[20]=0
y[21]=0
y[22]=2
y[23]=2
y[24]=1
y[25]=1
y[26]=0
y[27]=0
y[28]=0
y[29]=2
y[30]=2
y[31]=2
y[32]=0
