data/solutions/recovery/wellformed/moderate/flexible/wellformed_moderate_instance11/31.log

Log started (V12.6.3.0) Fri Apr 20 20:57:21 2018

New value for default parallel thread count: 1

Problem '/tmp/tmplS3sFD.pyomo.lp' read.
Read time = 0.00 sec. (0.03 ticks)

Problem name         : /tmp/tmplS3sFD.pyomo.lp
Objective sense      : Minimize
Variables            :     104  [Nneg: 1,  Binary: 99,  General Integer: 4]
Objective nonzeros   :       1
Linear constraints   :      73  [Less: 36,  Equal: 37]
  Nonzeros           :    2185
  RHS nonzeros       :      67

Variables            : Min LB: 0.000000         Max UB: 1.000000       
Objective nonzeros   : Min   : 1.000000         Max   : 1.000000       
Linear constraints   :
  Nonzeros           : Min   : 1.000000         Max   : 1950.000       
  RHS nonzeros       : Min   : 1.000000         Max   : 4.000000       
Tried aggregator 2 times.
MIP Presolve eliminated 33 rows and 3 columns.
Aggregator did 4 substitutions.
Reduced MIP has 36 rows, 97 columns, and 253 nonzeros.
Reduced MIP has 96 binaries, 1 generals, 0 SOSs, and 0 indicators.
Presolve time = 0.00 sec. (0.76 ticks)
Found incumbent of value 33472.000000 after 0.00 sec. (0.95 ticks)
Probing time = 0.00 sec. (0.07 ticks)
Cover probing fixed 0 vars, tightened 1 bounds.
Tried aggregator 1 time.
Reduced MIP has 36 rows, 97 columns, and 253 nonzeros.
Reduced MIP has 96 binaries, 1 generals, 0 SOSs, and 0 indicators.
Presolve time = 0.00 sec. (0.17 ticks)
Probing time = 0.00 sec. (0.04 ticks)
Clique table members: 32.
MIP emphasis: balance optimality and feasibility.
MIP search method: dynamic search.
Parallel mode: none, using 1 thread.
Root relaxation solution time = 0.00 sec. (0.08 ticks)

        Nodes                                         Cuts/
   Node  Left     Objective  IInf  Best Integer    Best Bound    ItCnt     Gap

*     0+    0                        33472.0000     1950.0000            94.17%
      0     0    11157.3333     4    33472.0000    11157.3333        5   66.67%
*     0+    0                        11953.0000    11157.3333             6.66%
      0     0    11158.0000     6    11953.0000      Fract: 3       14    6.65%
*     0+    0                        11514.0000    11158.0000             3.09%
      0     0    11158.0000     8    11514.0000       Cuts: 7       23    3.09%
*     0+    0                        11418.0000    11158.0000             2.28%
      0     0    11158.0000     4    11418.0000    MIRcuts: 4       31    2.28%
      0     0    11158.0000     8    11418.0000       Cuts: 4       46    2.28%
*     0+    0                        11388.0000    11158.0000             2.02%
*     0+    0                        11334.0000    11158.0000             1.55%
      0     2    11158.0000     8    11334.0000    11158.0000       46    1.55%
Elapsed time = 0.01 sec. (4.78 ticks, tree = 0.01 MB, solutions = 6)
*    26    10      integral     0    11327.0000    11158.0000      118    1.49%
*    30+    9                        11298.0000    11158.0000             1.24%
*    34    10      integral     0    11271.0000    11158.0000      134    1.00%
*    35     9      integral     0    11269.0000    11158.0000      136    0.99%
*    40+   12                        11188.0000    11158.0000             0.27%
*   100+   21                        11185.0000    11158.0000             0.24%
*   350+   49                        11173.0000    11158.0000             0.13%
*   670+  169                        11168.0000    11158.0000             0.09%
*   770+  239                        11166.0000    11158.0000             0.07%
*  1135   280      integral     0    11162.0000    11158.0000     1886    0.04%
*  1350   296      integral     0    11161.0000    11158.0000     2191    0.03%
*  3410+  260                        11159.0000    11158.0000             0.01%

Gomory fractional cuts applied:  1

Root node processing (before b&c):
  Real time             =    0.01 sec. (4.78 ticks)
Sequential b&c:
  Real time             =    0.50 sec. (226.86 ticks)
                          ------------
Total (root+branch&cut) =    0.52 sec. (231.64 ticks)

Solution pool: 18 solutions saved.

MIP - Integer optimal, tolerance (0.0001/1e-06):  Objective =  1.1159000000e+04
Current MIP best bound =  1.1158000000e+04 (gap = 1, 0.01%)
Solution time =    0.52 sec.  Iterations = 5967  Nodes = 3410 (261)
Deterministic time = 231.64 ticks  (447.45 ticks/sec)


Incumbent solution written to file '/tmp/tmprZOax0.cplex.sol'.
